RT is False
Default write of storage_offers_DA.csv just to have a file (but constraint should be inactive)
Reading model...
...model read.
creating competitive generators file...
...competitive generators recorded.
Loading data...
.. day-ahead data with real-time VRE data read.
Compiling instance...
...instance created.
Creating Offer Mitigation (model will solve as dispatch if TRUE)...
Solving...

Welcome to IBM(R) ILOG(R) CPLEX(R) Interactive Optimizer 12.8.0.0
  with Simplex, Mixed Integer & Barrier Optimizers
5725-A06 5725-A29 5724-Y48 5724-Y49 5724-Y54 5724-Y55 5655-Y21
Copyright IBM Corp. 1988, 2017.  All Rights Reserved.

Type 'help' for a list of available commands.
Type 'help' followed by a command name for more
information on commands.

CPLEX> Logfile 'cplex.log' closed.
Logfile 'C:\Users\llavi\Desktop\test919\logs\tmpg3ulminl.cplex.log' open.
CPLEX> New value for parallel optimization mode: -1
CPLEX> New value for mixed integer optimality gap tolerance: 0.01
CPLEX> New value for integrality tolerance: 1e-09
CPLEX> New value for feasibility tolerance: 0.01
CPLEX> New value for deterministic time limit in ticks: 75000
CPLEX> Problem 'C:\Users\llavi\Desktop\test919\logs\tmpjxt11lsd.pyomo.lp' read.
Read time = 0.09 sec. (3.03 ticks)
CPLEX> Problem name         : C:\Users\llavi\Desktop\test919\logs\tmpjxt11lsd.pyomo.lp
Objective sense      : Minimize
Variables            :   26465  [Nneg: 1,  Box: 22000,  Free: 4464]
Objective nonzeros   :    2496
Linear constraints   :   27515  [Less: 14006,  Greater: 4416,  Equal: 9093]
  Nonzeros           :   89171
  RHS nonzeros       :   12269

Variables            : Min LB: -5000.000        Max UB: 1000000.       
Objective nonzeros   : Min   : 15.73158         Max   : 124.0997       
Linear constraints   :
  Nonzeros           : Min   : 0.8500000        Max   : 3000.000       
  RHS nonzeros       : Min   : 0.01666667       Max   : 5000.000       
CPLEX> CPXPARAM_Simplex_Tolerances_Feasibility          0.01
CPXPARAM_Parallel                                -1
CPXPARAM_DetTimeLimit                            75000
CPXPARAM_MIP_Tolerances_MIPGap                   0.01
CPXPARAM_MIP_Tolerances_Integrality              1.0000000000000001e-09
Parallel mode: opportunistic, using up to 4 threads for concurrent optimization.
Tried aggregator 1 time.
LP Presolve eliminated 21401 rows and 15894 columns.
Aggregator did 722 substitutions.
Reduced LP has 5392 rows, 9849 columns, and 31765 nonzeros.
Presolve time = 0.05 sec. (22.46 ticks)

Iteration log . . .
Iteration:     1   Dual objective     =             0.000000
Perturbation started.
Iteration:   101   Dual objective     =             0.000000
Iteration:   373   Dual objective     =             1.453485
Iteration:   646   Dual objective     =             2.002665
Iteration:   948   Dual objective     =             2.156264
Iteration:  1146   Dual objective     =             2.265579
Iteration:  1502   Dual objective     =             2.329643
Iteration:  1806   Dual objective     =             2.360000
Iteration:  2090   Dual objective     =         16246.409159
Iteration:  2371   Dual objective     =         50563.563191
Iteration:  2686   Dual objective     =         86213.966982
Iteration:  2976   Dual objective     =        138769.007757
Iteration:  3384   Dual objective     =        152201.623799
Iteration:  3765   Dual objective     =        194331.024787
Iteration:  4206   Dual objective     =        236556.992445
Removing perturbation.

Dual simplex solved model.


Dual simplex - Optimal:  Objective =  2.4197055567e+05
Solution time =    0.17 sec.  Iterations = 4637 (0)
Deterministic time = 98.81 ticks  (574.48 ticks/sec)

CPLEX> Solution written to file 'C:\Users\llavi\Desktop\test919\logs\tmpipeqykz8.cplex.sol'.
CPLEX> Exporting results... 
...storage offer mitigation file created
Converting model to MPEC...
...converted
NOTE: initial MIP solve with only storage competitive to get feasible solution
Solving...

Welcome to IBM(R) ILOG(R) CPLEX(R) Interactive Optimizer 12.8.0.0
  with Simplex, Mixed Integer & Barrier Optimizers
5725-A06 5725-A29 5724-Y48 5724-Y49 5724-Y54 5724-Y55 5655-Y21
Copyright IBM Corp. 1988, 2017.  All Rights Reserved.

Type 'help' for a list of available commands.
Type 'help' followed by a command name for more
information on commands.

CPLEX> Logfile 'cplex.log' closed.
Logfile 'C:\Users\llavi\Desktop\test919\logs\tmp7dk14ino.cplex.log' open.
CPLEX> New value for parallel optimization mode: -1
CPLEX> New value for mixed integer optimality gap tolerance: 0.01
CPLEX> New value for integrality tolerance: 1e-09
CPLEX> New value for feasibility tolerance: 0.01
CPLEX> New value for deterministic time limit in ticks: 75000
CPLEX> Problem 'C:\Users\llavi\Desktop\test919\logs\tmpqqbgzu48.pyomo.lp' read.
Read time = 0.25 sec. (13.96 ticks)
CPLEX> Problem name         : C:\Users\llavi\Desktop\test919\logs\tmpqqbgzu48.pyomo.lp
Objective sense      : Maximize
Variables            :   53805  [Nneg: 1,  Box: 22000,  Free: 4464,
                                 Binary: 27340]
Objective nonzeros   :    9076
Linear constraints   :  123205  [Less: 41346,  Greater: 59096,  Equal: 22763]
  Nonzeros           :  291703
  RHS nonzeros       :   67435

Variables            : Min LB: -5000.000        Max UB: 1000000.       
Objective nonzeros   : Min   : 0.01666667       Max   : 2500.000       
Linear constraints   :
  Nonzeros           : Min   : 0.01666667       Max   : 1000000.       
  RHS nonzeros       : Min   : 0.01666667       Max   : 1000000.       
CPLEX> CPXPARAM_Simplex_Tolerances_Feasibility          0.01
CPXPARAM_Parallel                                -1
CPXPARAM_DetTimeLimit                            75000
CPXPARAM_MIP_Tolerances_MIPGap                   0.01
CPXPARAM_MIP_Tolerances_Integrality              1.0000000000000001e-09
Tried aggregator 3 times.
MIP Presolve eliminated 88663 rows and 19010 columns.
MIP Presolve added 3352 rows and 0 columns.
MIP Presolve modified 23877 coefficients.
Aggregator did 12961 substitutions.
Reduced MIP has 24933 rows, 21277 columns, and 71072 nonzeros.
Reduced MIP has 8420 binaries, 0 generals, 0 SOSs, and 0 indicators.
Presolve time = 0.28 sec. (165.23 ticks)
Probing fixed 418 vars, tightened 2939 bounds.
Probing time = 3.25 sec. (915.93 ticks)
Tried aggregator 2 times.
MIP Presolve eliminated 946 rows and 838 columns.
MIP Presolve modified 2233 coefficients.
Aggregator did 36 substitutions.
Reduced MIP has 23951 rows, 20403 columns, and 68234 nonzeros.
Reduced MIP has 8001 binaries, 0 generals, 0 SOSs, and 0 indicators.
Presolve time = 0.14 sec. (53.79 ticks)
Probing time = 0.06 sec. (15.84 ticks)
Clique table members: 6535.
MIP emphasis: balance optimality and feasibility.
MIP search method: dynamic search.
Parallel mode: opportunistic, using up to 4 threads.
Root relaxation solution time = 0.58 sec. (487.31 ticks)

        Nodes                                         Cuts/
   Node  Left     Objective  IInf  Best Integer    Best Bound    ItCnt     Gap

      0     0      -65.2874   712                    -65.2874     3844         
      0     0      -65.2874    12                    Fract: 1     3845         
      0     0      -65.2874    12                 Flowcuts: 2     3847         
      0     3     -220.8381    11                    -65.2874     3864         
Elapsed time = 16.05 sec. (5161.07 ticks, tree = 0.04 MB, solutions = 0)
*    60+   37                         -575.6733     -121.8829            78.83%
    148    48     -158.9088     2     -575.6733     -121.8829     4366   78.83%
*   151    51      integral     0     -261.9282     -121.8829     4389   53.47%
    230    67     -230.4776     2     -261.9282     -121.8829     4598   53.47%
    306   138     -243.1150     1     -261.9282     -121.8829     4847   53.47%
    407   236     -220.3094     6     -261.9282     -121.8829     5213   53.47%
    518   314     -239.9979     5     -261.9282     -121.8829     5612   53.47%
    579   338        cutoff           -261.9282     -121.8829     5723   53.47%
    621   338        cutoff           -261.9282     -121.8829     5731   53.47%
    644   353     -239.9979     4     -261.9282     -121.8829     5808   53.47%
    846   413     -240.3791     2     -261.9282     -122.6076     6157   53.19%
Elapsed time = 21.80 sec. (8239.20 ticks, tree = 3.13 MB, solutions = 4)
   1083   528    infeasible           -261.9282     -122.6076     6896   53.19%
   1199   589     -250.2774     4     -261.9282     -122.6076     7204   53.19%
   1300   617        cutoff           -261.9282     -122.6076     7417   53.19%
   1494   663     -223.4408     2     -261.9282     -122.6076     7795   53.19%
*  1536   724      integral     0     -231.0793     -122.6076     8172   46.94%
   1709   591     -218.5004     6     -231.0793     -122.6076     8534   46.94%
   1823   638     -122.9069     1     -231.0793     -122.6076     8784   46.94%
*  1856   632      integral     0     -145.2096     -122.9069     9193   15.36%
   1986   154        cutoff           -145.2096     -122.9069     9849   15.36%
   2148   169     -123.5521     1     -145.2096     -122.9069    15586   15.36%
   2250   178     -125.1939     1     -145.2096     -122.9069    15683   15.36%
*  2290   194      integral     0     -144.2130     -122.9069    16519   14.77%
   2346   196        cutoff           -144.2130     -122.9069    16076   14.77%
Elapsed time = 38.69 sec. (17827.52 ticks, tree = 0.98 MB, solutions = 8)
   2507   161        cutoff           -144.2130     -124.2184    19934   13.86%
   2638   164     -137.9620     1     -144.2130     -125.1939    20242   13.19%
   2731   153        cutoff           -144.2130     -125.1939    20893   13.19%
   2834   117        cutoff           -144.2130     -125.1939    21241   13.19%
   2939   116        cutoff           -144.2130     -125.1939    21601   13.19%
   3089   138     -130.1979   112     -144.2130     -125.1939    27164   13.19%
*  3247   109      integral     0     -130.1979     -125.1939    27276    3.84%
   3269   115     -143.5678     1     -130.1979     -125.1939    22868    3.84%
   3322    11        cutoff           -130.1979     -125.1939    28615    3.84%
   3358   111     -137.9620     1     -130.1979     -125.1939    22876    3.84%
   3386    13        cutoff           -130.1979     -125.1939    28636    3.84%
Elapsed time = 54.14 sec. (27682.51 ticks, tree = 0.04 MB, solutions = 9)
   3398    14     -125.1939     1     -130.1979     -125.1939    28640    3.84%
   3404    10     -125.1939     1     -130.1979     -125.1939    28703    3.84%

Clique cuts applied:  1
Implied bound cuts applied:  12
Flow cuts applied:  176
Gomory fractional cuts applied:  2

Root node processing (before b&c):
  Real time             =   15.91 sec. (5150.71 ticks)
Parallel b&c, 4 threads:
  Real time             =   38.30 sec. (24958.62 ticks)
  Sync time (average)   =    2.96 sec.
  Wait time (average)   =    0.01 sec.
                          ------------
Total (root+branch&cut) =   54.20 sec. (30109.34 ticks)

Solution pool: 9 solutions saved.

MIP - Integer optimal solution:  Objective = -1.3019785315e+02
Solution time =   54.22 sec.  Iterations = 29232  Nodes = 3409
Deterministic time = 30109.49 ticks  (555.33 ticks/sec)

CPLEX> Incumbent solution written to file 'C:\Users\llavi\Desktop\test919\logs\tmp0a_olvfa.cplex.sol'.
CPLEX> NOTE: no warmstart specified for MIP iteration, default behavior is true
NOTE: resolving with all competitive generators using storage-only solution to warmstart
Solving...

Welcome to IBM(R) ILOG(R) CPLEX(R) Interactive Optimizer 12.8.0.0
  with Simplex, Mixed Integer & Barrier Optimizers
5725-A06 5725-A29 5724-Y48 5724-Y49 5724-Y54 5724-Y55 5655-Y21
Copyright IBM Corp. 1988, 2017.  All Rights Reserved.

Type 'help' for a list of available commands.
Type 'help' followed by a command name for more
information on commands.

CPLEX> Logfile 'cplex.log' closed.
Logfile 'C:\Users\llavi\Desktop\test919\logs\tmpoocte7gl.cplex.log' open.
CPLEX> New value for parallel optimization mode: -1
CPLEX> New value for mixed integer optimality gap tolerance: 0.01
CPLEX> New value for integrality tolerance: 1e-09
CPLEX> New value for feasibility tolerance: 0.01
CPLEX> New value for deterministic time limit in ticks: 75000
CPLEX> Problem 'C:\Users\llavi\Desktop\test919\logs\tmpd4dq7rac.pyomo.lp' read.
Read time = 0.27 sec. (13.98 ticks)
CPLEX> MIP start file 'C:\Users\llavi\Desktop\test919\logs\tmpnij663nx.cplex.mst' read.
CPLEX> Problem name         : C:\Users\llavi\Desktop\test919\logs\tmpd4dq7rac.pyomo.lp
Objective sense      : Maximize
Variables            :   54525  [Nneg: 1,  Box: 22720,  Free: 4464,
                                 Binary: 27340]
Objective nonzeros   :    9772
Linear constraints   :  123205  [Less: 41346,  Greater: 59096,  Equal: 22763]
  Nonzeros           :  291703
  RHS nonzeros       :   67435

Variables            : Min LB: -5000.000        Max UB: 1000000.       
Objective nonzeros   : Min   : 0.01666667       Max   : 2500.000       
Linear constraints   :
  Nonzeros           : Min   : 0.01666667       Max   : 1000000.       
  RHS nonzeros       : Min   : 0.01666667       Max   : 1000000.       
CPLEX> CPXPARAM_Simplex_Tolerances_Feasibility          0.01
CPXPARAM_Parallel                                -1
CPXPARAM_DetTimeLimit                            75000
CPXPARAM_MIP_Tolerances_MIPGap                   0.01
CPXPARAM_MIP_Tolerances_Integrality              1.0000000000000001e-09
Warning:  No solution found from 1 MIP starts.
Retaining values of one MIP start for possible repair.
Tried aggregator 3 times.
MIP Presolve eliminated 88663 rows and 19730 columns.
MIP Presolve added 3352 rows and 0 columns.
MIP Presolve modified 23877 coefficients.
Aggregator did 12961 substitutions.
Reduced MIP has 24933 rows, 21277 columns, and 71072 nonzeros.
Reduced MIP has 8420 binaries, 0 generals, 0 SOSs, and 0 indicators.
Presolve time = 0.28 sec. (165.59 ticks)
Probing fixed 418 vars, tightened 2939 bounds.
Probing time = 3.28 sec. (915.93 ticks)
Tried aggregator 2 times.
MIP Presolve eliminated 946 rows and 838 columns.
MIP Presolve modified 2233 coefficients.
Aggregator did 36 substitutions.
Reduced MIP has 23951 rows, 20403 columns, and 68234 nonzeros.
Reduced MIP has 8001 binaries, 0 generals, 0 SOSs, and 0 indicators.
Presolve time = 0.11 sec. (53.80 ticks)
Probing time = 0.08 sec. (15.84 ticks)
Clique table members: 6535.
MIP emphasis: balance optimality and feasibility.
MIP search method: dynamic search.
Parallel mode: opportunistic, using up to 4 threads.
Root relaxation solution time = 0.48 sec. (217.08 ticks)

        Nodes                                         Cuts/
   Node  Left     Objective  IInf  Best Integer    Best Bound    ItCnt     Gap

      0     0   186216.5541  1807                 186216.5541     3691         
      0     0   183519.2125   641                   Cuts: 821     4202         
      0     0   183072.4730   510                   Cuts: 355     4396         
      0     0   182972.2179   503                   Cuts: 206     4514         
      0     0   182851.8168   445                   Cuts: 126     4582         
      0     0   182834.6138   416                    Cuts: 78     4632         
      0     0   182834.6138   396                    Cuts: 21     4652         
      0     0   182834.6138   391                    Cuts: 27     4661         
      0     0   182834.6138   383                    Cuts: 10     4668         
      0     0   182834.6138   384                     Cuts: 5     4669         
Repair heuristic found nothing.
      0     2   182834.6138   384                 180998.0841     4670         
Elapsed time = 38.08 sec. (15188.65 ticks, tree = 0.02 MB, solutions = 0)
     67    33   148499.2029   304                 180998.0841     5491         
    129    91   107499.1081   295                 180998.0841     6878         
    192   155    75355.3429   259                 180998.0841     8146         
    253   200    76453.7716   264                 180998.0841     8616         
    317   260    29455.8182   236                 180998.0841     9427         
    407   280    17688.5639   241                 180998.0841     9902         
    498   382    21770.7514   212                 180998.0841    10776         
    578   426    20559.4734   185                 180998.0841    11359         
    641   479    50418.9624   249                 180998.0841    12165         
   1135   965    41103.1869   210                 180998.0841    13404         
Elapsed time = 43.39 sec. (18312.91 ticks, tree = 8.22 MB, solutions = 0)
   1406  1187   -12129.8190   108                 180678.8678    15080         
*  1684  1403      integral     0    34521.9624   180678.8678    17757  423.37%
   1711   704    99267.5018   339    34521.9624   180678.8678    18333  423.37%
   2012   899    54170.9012   275    34521.9624   180296.1150    23590  422.26%
   2354  1247        cutoff          34521.9624   180296.1150    27476  422.26%
   2492  1396    89478.9421   177    34521.9624    90985.2801    37071  163.56%
   2699   120        cutoff          34521.9624    76715.1623    39563  122.22%
   2908   283        cutoff          34521.9624    76715.1623    40728  122.22%
   3117   391    44206.3909    75    34521.9624    76715.1623    41812  122.22%
   3334   466    49849.7397    98    34521.9624    76715.1623    42829  122.22%
   3522   630    43553.8744    50    34521.9624    76715.1623    44114  122.22%
Elapsed time = 76.33 sec. (32548.17 ticks, tree = 4.34 MB, solutions = 1)
   3698   677    46946.3459    64    34521.9624    76715.1623    44526  122.22%
   3918   808    38371.4749    51    34521.9624    76715.1623    45581  122.22%
   4122   964    49856.8640   101    34521.9624    76715.1623    46782  122.22%
   4333  1161    49189.5495    99    34521.9624    76715.1623    47999  122.22%
   4555   915    44244.9209    56    34521.9624    76715.1623    46657  122.22%
   4812  1308    40965.6556    46    34521.9624    76715.1623    49530  122.22%
   5076  1374    49147.3486    96    34521.9624    76715.1623    50085  122.22%
   5367  1431    49133.3688    97    34521.9624    76715.1623    50544  122.22%
   5659   890    37462.9831    24    34521.9624    76715.1623    46195  122.22%
   6001  1571    41350.0231    63    34521.9624    76715.1623    51049  122.22%
Elapsed time = 94.89 sec. (42120.60 ticks, tree = 13.16 MB, solutions = 1)
   6289  1862    46745.2454   103    34521.9624    76715.1623    54012  122.22%
   6603  1944    48690.9661    97    34521.9624    76715.1623    54651  122.22%
   6926  2025    48771.6762   104    34521.9624    76715.1623    55378  122.22%
   7232  2117    47796.6869    86    34521.9624    76715.1623    56012  122.22%
   7558  2198    45070.7364    93    34521.9624    76715.1623    56580  122.22%
   7898  3000    44231.5077    51    34521.9624    76715.1623    62630  122.22%
   8171  2349    39538.4080    49    34521.9624    76715.1623    57836  122.22%
   8446  2424    40158.7799    49    34521.9624    76715.1623    58491  122.22%
   8768  2519    48690.6283    94    34521.9624    76715.1623    59185  122.22%
   9043  2604    46346.7644    61    34521.9624    76715.1623    60026  122.22%
Elapsed time = 114.42 sec. (51679.37 ticks, tree = 34.24 MB, solutions = 1)
   9335  3322    48743.9694    94    34521.9624    76715.1623    65216  122.22%
   9592  4036    49444.6749   107    34521.9624    76715.1623    71225  122.22%
   9841  1631        cutoff          34521.9624    76715.1623    52012  122.22%
  10100  3499    48773.3898   100    34521.9624    76715.1623    66611  122.22%
  10385  4225    35768.1837    54    34521.9624    76715.1623    72973  122.22%
  10713  3641    49834.4397   109    34521.9624    76715.1623    67776  122.22%
  11038  4374    43870.9690    69    34521.9624    76715.1623    74367  122.22%
  11355  3438    44212.2343    56    34521.9624    76715.1623    66547  122.22%
  11569  3860    49259.6825   107    34521.9624    76715.1623    69651  122.22%
  11795  3959    44070.4825    49    34521.9624    76715.1623    70316  122.22%
Elapsed time = 128.59 sec. (61242.01 ticks, tree = 45.66 MB, solutions = 1)
  11991  4022    49221.7787   104    34521.9624    76715.1623    70985  122.22%
  12192  4101    47426.5392    87    34521.9624    76715.1623    71599  122.22%
  12388  4786    44088.2348    64    34521.9624    76715.1623    78096  122.22%
  12631  4283    41658.0719    46    34521.9624    76715.1623    72772  122.22%
  12848  4354    41226.4451    46    34521.9624    76715.1623    73405  122.22%
  13001  2168        cutoff          34521.9624    76715.1623    55922  122.22%
  13067  2955        cutoff          34521.9624    76715.1623    62359  122.22%
  13184  5118    47043.8405   105    34521.9624    76715.1623    81047  122.22%
  13306  5183    49091.2387   108    34521.9624    76715.1623    81782  122.22%
  13428  5270    46141.9887    64    34521.9624    76715.1623    82520  122.22%
Elapsed time = 140.20 sec. (71081.98 ticks, tree = 58.58 MB, solutions = 1)
  13540  5329    49467.7385    96    34521.9624    76715.1623    83126  122.22%
  13662  5418    48163.7538    89    34521.9624    76715.1623    83769  122.22%
  13771  5501    41837.3203    48    34521.9624    76715.1623    84373  122.22%

GUB cover cuts applied:  1
Clique cuts applied:  2
Cover cuts applied:  14
Implied bound cuts applied:  12
Flow cuts applied:  402
Mixed integer rounding cuts applied:  35
Gomory fractional cuts applied:  56

Root node processing (before b&c):
  Real time             =   37.80 sec. (15142.24 ticks)
Parallel b&c, 4 threads:
  Real time             =  106.67 sec. (60167.80 ticks)
  Sync time (average)   =    0.45 sec.
  Wait time (average)   =    0.02 sec.
                          ------------
Total (root+branch&cut) =  144.47 sec. (75310.04 ticks)

Solution pool: 1 solution saved.

MIP - Deterministic time limit exceeded, integer feasible:  Objective =  3.4521962442e+04
Current MIP best bound =  7.6715162348e+04 (gap = 42193.2, 122.22%)
Solution time =  144.47 sec.  Iterations = 107223  Nodes = 13871 (8320)
Deterministic time = 75310.20 ticks  (521.29 ticks/sec)

CPLEX> Incumbent solution written to file 'C:\Users\llavi\Desktop\test919\logs\tmp4b97uada.cplex.sol'.
CPLEX> Exporting results... 
